239 300 160 182 156 112 183 103 109 109 113 151 141 145 114 157 182 121 155 120 173 125 151 174 166 145 117 109 122 161 141 123 185 100 104 140 180 153 110 189 128 123 105 169 168 186 193 115 107 113 101 180 139 152 119 171 164 102 180 186 164 120 175 114 188 145 121 133 199 131 188 126 120 193 162 155 145 154 170 152 133 172 198 172 190 116 143 153 119 189 139 149 109 180 129 163 125 150 196 190 147 183 182 134 141 143 189 186 163 158 137 197 196 134 134 186 117 177 138 102 132 143 117 107 123 146 170 114 163 165 103 176 113 185 109 154 128 198 140 157 122 143 153 117 144 188 102 161 130 107 163 162 150 180 135 139 192 104 153 154 135 122 130 148 107 139 102 101 103 108 158 125 151 111 142 195 165 111 155 161 118 184 190 134 129 124 174 121 129 193 141 164 115 137 179 189 143 181 190 146 189 147 171 139 124 179 100 189 190 121 116 107 105 105 108 100 129 182 188 124 140 196 155 121 132 133 109 175 113 199 120 168 112 157 173 136 136 173 192 192 195 